784 1512
1 2 5
1 29 2
2 3 5
2 30 1
3 4 5
3 31 4
4 5 3
4 32 2
5 6 3
5 33 2
6 7 3
6 34 5
7 8 1
7 35 3
8 9 3
8 36 4
9 10 4
9 37 4
10 11 5
10 38 1
11 12 4
11 39 3
12 13 3
12 40 5
13 14 4
13 41 4
14 15 5
14 42 1
15 16 3
15 43 5
16 17 1
16 44 4
17 18 2
17 45 3
18 19 1
18 46 1
19 20 1
19 47 3
20 21 2
20 48 4
21 22 4
21 49 2
22 23 1
22 50 4
23 24 1
23 51 2
24 25 4
24 52 2
25 26 3
25 53 2
26 27 1
26 54 4
27 28 4
27 55 5
28 56 2
29 30 1
29 57 4
30 31 3
30 58 3
31 32 2
31 59 5
32 33 1
32 60 1
33 34 1
33 61 2
34 35 4
34 62 2
35 36 5
35 63 2
36 37 1
36 64 5
37 38 5
37 65 3
38 39 2
38 66 5
39 40 5
39 67 3
40 41 5
40 68 5
41 42 1
41 69 4
42 43 5
42 70 2
43 44 3
43 71 2
44 45 2
44 72 4
45 46 5
45 73 2
46 47 2
46 74 4
47 48 1
47 75 4
48 49 3
48 76 1
49 50 3
49 77 3
50 51 3
50 78 4
51 52 4
51 79 1
52 53 5
52 80 3
53 54 4
53 81 3
54 55 2
54 82 5
55 56 4
55 83 5
56 84 5
57 58 2
57 85 2
58 59 5
58 86 5
59 60 4
59 87 4
60 61 4
60 88 5
61 62 1
61 89 1
62 63 4
62 90 4
63 64 2
63 91 1
64 65 2
64 92 3
65 66 5
65 93 3
66 67 5
66 94 1
67 68 2
67 95 4
68 69 4
68 96 5
69 70 1
69 97 1
70 71 2
70 98 2
71 72 1
71 99 1
72 73 4
72 100 2
73 74 4
73 101 5
74 75 4
74 102 5
75 76 4
75 103 5
76 77 4
76 104 5
77 78 1
77 105 5
78 79 2
78 106 5
79 80 5
79 107 5
80 81 4
80 108 1
81 82 3
81 109 2
82 83 1
82 110 2
83 84 3
83 111 5
84 112 1
85 86 3
85 113 3
86 87 2
86 114 5
87 88 2
87 115 1
88 89 3
88 116 4
89 90 5
89 117 5
90 91 2
90 118 3
91 92 5
91 119 5
92 93 3
92 120 3
93 94 4
93 121 5
94 95 3
94 122 5
95 96 3
95 123 1
96 97 3
96 124 1
97 98 5
97 125 1
98 99 3
98 126 1
99 100 5
99 127 3
100 101 2
100 128 5
101 102 4
101 129 2
102 103 4
102 130 2
103 104 1
103 131 2
104 105 5
104 132 2
105 106 1
105 133 5
106 107 1
106 134 1
107 108 2
107 135 4
108 109 3
108 136 4
109 110 1
109 137 1
110 111 5
110 138 3
111 112 2
111 139 3
112 140 1
113 114 3
113 141 3
114 115 4
114 142 2
115 116 1
115 143 3
116 117 5
116 144 4
117 118 2
117 145 4
118 119 4
118 146 4
119 120 2
119 147 2
120 121 5
120 148 4
121 122 2
121 149 3
122 123 1
122 150 1
123 124 2
123 151 3
124 125 4
124 152 4
125 126 2
125 153 1
126 127 1
126 154 3
127 128 1
127 155 3
128 129 1
128 156 3
129 130 3
129 157 3
130 131 2
130 158 4
131 132 5
131 159 2
132 133 5
132 160 5
133 134 5
133 161 3
134 135 3
134 162 2
135 136 1
135 163 2
136 137 4
136 164 1
137 138 4
137 165 4
138 139 5
138 166 2
139 140 1
139 167 1
140 168 4
141 142 4
141 169 4
142 143 3
142 170 3
143 144 1
143 171 4
144 145 1
144 172 3
145 146 4
145 173 5
146 147 4
146 174 5
147 148 1
147 175 3
148 149 4
148 176 1
149 150 5
149 177 3
150 151 5
150 178 1
151 152 2
151 179 5
152 153 3
152 180 3
153 154 5
153 181 1
154 155 5
154 182 5
155 156 1
155 183 3
156 157 5
156 184 5
157 158 1
157 185 4
158 159 5
158 186 1
159 160 5
159 187 1
160 161 2
160 188 1
161 162 4
161 189 4
162 163 4
162 190 1
163 164 1
163 191 4
164 165 1
164 192 5
165 166 4
165 193 4
166 167 2
166 194 1
167 168 3
167 195 2
168 196 1
169 170 2
169 197 5
170 171 4
170 198 2
171 172 1
171 199 3
172 173 1
172 200 1
173 174 5
173 201 5
174 175 4
174 202 5
175 176 4
175 203 2
176 177 4
176 204 2
177 178 1
177 205 2
178 179 1
178 206 5
179 180 5
179 207 3
180 181 1
180 208 5
181 182 4
181 209 5
182 183 3
182 210 5
183 184 1
183 211 3
184 185 2
184 212 4
185 186 5
185 213 5
186 187 4
186 214 5
187 188 4
187 215 5
188 189 2
188 216 3
189 190 2
189 217 5
190 191 3
190 218 5
191 192 1
191 219 1
192 193 5
192 220 4
193 194 3
193 221 2
194 195 5
194 222 2
195 196 4
195 223 2
196 224 3
197 198 4
197 225 1
198 199 3
198 226 1
199 200 4
199 227 4
200 201 2
200 228 5
201 202 5
201 229 2
202 203 5
202 230 2
203 204 3
203 231 5
204 205 4
204 232 1
205 206 3
205 233 5
206 207 4
206 234 2
207 208 4
207 235 2
208 209 3
208 236 2
209 210 1
209 237 2
210 211 5
210 238 1
211 212 3
211 239 2
212 213 1
212 240 1
213 214 5
213 241 5
214 215 3
214 242 3
215 216 1
215 243 3
216 217 5
216 244 4
217 218 1
217 245 3
218 219 2
218 246 1
219 220 1
219 247 2
220 221 1
220 248 4
221 222 1
221 249 4
222 223 3
222 250 2
223 224 3
223 251 3
224 252 4
225 226 3
225 253 4
226 227 3
226 254 1
227 228 1
227 255 4
228 229 4
228 256 2
229 230 4
229 257 1
230 231 1
230 258 2
231 232 4
231 259 1
232 233 4
232 260 4
233 234 2
233 261 4
234 235 2
234 262 5
235 236 1
235 263 1
236 237 5
236 264 1
237 238 4
237 265 3
238 239 3
238 266 4
239 240 1
239 267 5
240 241 5
240 268 1
241 242 5
241 269 1
242 243 5
242 270 3
243 244 5
243 271 5
244 245 3
244 272 2
245 246 5
245 273 1
246 247 2
246 274 4
247 248 3
247 275 3
248 249 3
248 276 4
249 250 2
249 277 3
250 251 2
250 278 2
251 252 1
251 279 2
252 280 2
253 254 4
253 281 1
254 255 5
254 282 2
255 256 1
255 283 3
256 257 3
256 284 1
257 258 2
257 285 3
258 259 4
258 286 2
259 260 4
259 287 4
260 261 2
260 288 1
261 262 3
261 289 5
262 263 2
262 290 1
263 264 3
263 291 1
264 265 5
264 292 4
265 266 4
265 293 4
266 267 2
266 294 5
267 268 2
267 295 2
268 269 2
268 296 5
269 270 5
269 297 5
270 271 2
270 298 5
271 272 4
271 299 4
272 273 5
272 300 4
273 274 2
273 301 4
274 275 2
274 302 5
275 276 4
275 303 3
276 277 3
276 304 3
277 278 1
277 305 5
278 279 1
278 306 5
279 280 1
279 307 5
280 308 4
281 282 5
281 309 3
282 283 2
282 310 5
283 284 2
283 311 5
284 285 1
284 312 2
285 286 5
285 313 3
286 287 5
286 314 3
287 288 2
287 315 4
288 289 1
288 316 4
289 290 4
289 317 5
290 291 3
290 318 2
291 292 1
291 319 1
292 293 2
292 320 1
293 294 4
293 321 4
294 295 2
294 322 5
295 296 3
295 323 2
296 297 2
296 324 2
297 298 3
297 325 2
298 299 1
298 326 1
299 300 5
299 327 5
300 301 1
300 328 4
301 302 5
301 329 3
302 303 2
302 330 3
303 304 2
303 331 3
304 305 1
304 332 3
305 306 5
305 333 3
306 307 3
306 334 5
307 308 4
307 335 3
308 336 4
309 310 5
309 337 5
310 311 3
310 338 3
311 312 1
311 339 5
312 313 2
312 340 2
313 314 3
313 341 1
314 315 2
314 342 5
315 316 3
315 343 2
316 317 2
316 344 5
317 318 5
317 345 4
318 319 2
318 346 3
319 320 1
319 347 4
320 321 3
320 348 5
321 322 3
321 349 1
322 323 2
322 350 3
323 324 3
323 351 4
324 325 4
324 352 3
325 326 4
325 353 5
326 327 5
326 354 1
327 328 5
327 355 3
328 329 1
328 356 5
329 330 1
329 357 4
330 331 4
330 358 1
331 332 2
331 359 5
332 333 1
332 360 4
333 334 5
333 361 5
334 335 5
334 362 5
335 336 3
335 363 2
336 364 1
337 338 2
337 365 1
338 339 2
338 366 3
339 340 1
339 367 1
340 341 1
340 368 5
341 342 5
341 369 5
342 343 4
342 370 4
343 344 2
343 371 1
344 345 4
344 372 2
345 346 2
345 373 1
346 347 2
346 374 2
347 348 2
347 375 2
348 349 1
348 376 5
349 350 4
349 377 5
350 351 2
350 378 4
351 352 5
351 379 1
352 353 3
352 380 1
353 354 3
353 381 4
354 355 4
354 382 1
355 356 5
355 383 5
356 357 1
356 384 2
357 358 5
357 385 3
358 359 4
358 386 4
359 360 2
359 387 2
360 361 3
360 388 3
361 362 4
361 389 3
362 363 2
362 390 5
363 364 5
363 391 4
364 392 2
365 366 4
365 393 5
366 367 4
366 394 3
367 368 4
367 395 2
368 369 1
368 396 2
369 370 3
369 397 2
370 371 5
370 398 3
371 372 5
371 399 3
372 373 3
372 400 3
373 374 1
373 401 4
374 375 3
374 402 3
375 376 2
375 403 1
376 377 3
376 404 5
377 378 2
377 405 2
378 379 5
378 406 1
379 380 2
379 407 1
380 381 1
380 408 1
381 382 1
381 409 1
382 383 2
382 410 1
383 384 5
383 411 1
384 385 3
384 412 5
385 386 1
385 413 2
386 387 2
386 414 1
387 388 1
387 415 1
388 389 3
388 416 3
389 390 3
389 417 1
390 391 2
390 418 4
391 392 1
391 419 5
392 420 5
393 394 1
393 421 3
394 395 2
394 422 4
395 396 4
395 423 4
396 397 5
396 424 2
397 398 1
397 425 3
398 399 3
398 426 5
399 400 1
399 427 5
400 401 4
400 428 5
401 402 3
401 429 3
402 403 3
402 430 3
403 404 2
403 431 1
404 405 3
404 432 1
405 406 5
405 433 3
406 407 2
406 434 1
407 408 2
407 435 2
408 409 5
408 436 1
409 410 4
409 437 5
410 411 2
410 438 2
411 412 2
411 439 5
412 413 4
412 440 2
413 414 2
413 441 3
414 415 1
414 442 2
415 416 5
415 443 1
416 417 2
416 444 2
417 418 5
417 445 2
418 419 5
418 446 1
419 420 5
419 447 5
420 448 4
421 422 3
421 449 2
422 423 1
422 450 4
423 424 2
423 451 5
424 425 3
424 452 4
425 426 1
425 453 1
426 427 2
426 454 2
427 428 5
427 455 2
428 429 2
428 456 3
429 430 5
429 457 5
430 431 3
430 458 3
431 432 1
431 459 2
432 433 3
432 460 3
433 434 4
433 461 4
434 435 1
434 462 2
435 436 4
435 463 3
436 437 1
436 464 5
437 438 3
437 465 2
438 439 2
438 466 2
439 440 1
439 467 1
440 441 5
440 468 3
441 442 1
441 469 1
442 443 5
442 470 3
443 444 5
443 471 3
444 445 1
444 472 4
445 446 2
445 473 1
446 447 4
446 474 1
447 448 2
447 475 1
448 476 3
449 450 1
449 477 5
450 451 4
450 478 3
451 452 3
451 479 5
452 453 5
452 480 3
453 454 1
453 481 4
454 455 4
454 482 5
455 456 4
455 483 5
456 457 3
456 484 5
457 458 4
457 485 4
458 459 2
458 486 2
459 460 3
459 487 4
460 461 3
460 488 2
461 462 3
461 489 4
462 463 5
462 490 4
463 464 3
463 491 2
464 465 4
464 492 5
465 466 3
465 493 3
466 467 2
466 494 2
467 468 3
467 495 5
468 469 2
468 496 3
469 470 2
469 497 5
470 471 3
470 498 1
471 472 2
471 499 2
472 473 1
472 500 2
473 474 3
473 501 2
474 475 5
474 502 4
475 476 4
475 503 1
476 504 3
477 478 5
477 505 5
478 479 2
478 506 2
479 480 4
479 507 1
480 481 3
480 508 2
481 482 1
481 509 3
482 483 3
482 510 1
483 484 4
483 511 2
484 485 4
484 512 2
485 486 4
485 513 5
486 487 1
486 514 3
487 488 3
487 515 2
488 489 3
488 516 4
489 490 1
489 517 3
490 491 2
490 518 4
491 492 1
491 519 2
492 493 3
492 520 1
493 494 3
493 521 4
494 495 1
494 522 3
495 496 3
495 523 3
496 497 3
496 524 3
497 498 5
497 525 1
498 499 5
498 526 5
499 500 4
499 527 4
500 501 5
500 528 2
501 502 4
501 529 2
502 503 3
502 530 5
503 504 1
503 531 1
504 532 4
505 506 3
505 533 1
506 507 4
506 534 4
507 508 1
507 535 2
508 509 3
508 536 4
509 510 4
509 537 4
510 511 4
510 538 3
511 512 1
511 539 1
512 513 5
512 540 3
513 514 1
513 541 5
514 515 4
514 542 1
515 516 1
515 543 1
516 517 3
516 544 4
517 518 1
517 545 4
518 519 5
518 546 1
519 520 4
519 547 5
520 521 5
520 548 3
521 522 4
521 549 5
522 523 5
522 550 4
523 524 3
523 551 4
524 525 2
524 552 1
525 526 3
525 553 4
526 527 3
526 554 5
527 528 3
527 555 2
528 529 1
528 556 2
529 530 2
529 557 2
530 531 1
530 558 1
531 532 3
531 559 1
532 560 2
533 534 4
533 561 1
534 535 4
534 562 2
535 536 5
535 563 1
536 537 3
536 564 4
537 538 3
537 565 3
538 539 1
538 566 3
539 540 3
539 567 5
540 541 1
540 568 3
541 542 4
541 569 1
542 543 1
542 570 2
543 544 1
543 571 5
544 545 4
544 572 2
545 546 4
545 573 2
546 547 3
546 574 2
547 548 4
547 575 2
548 549 5
548 576 4
549 550 2
549 577 1
550 551 2
550 578 2
551 552 1
551 579 5
552 553 3
552 580 1
553 554 2
553 581 2
554 555 3
554 582 5
555 556 4
555 583 2
556 557 4
556 584 4
557 558 5
557 585 1
558 559 1
558 586 3
559 560 3
559 587 4
560 588 4
561 562 4
561 589 1
562 563 5
562 590 3
563 564 3
563 591 3
564 565 3
564 592 2
565 566 5
565 593 1
566 567 2
566 594 5
567 568 4
567 595 4
568 569 4
568 596 4
569 570 5
569 597 2
570 571 5
570 598 2
571 572 5
571 599 4
572 573 2
572 600 5
573 574 4
573 601 2
574 575 5
574 602 2
575 576 4
575 603 5
576 577 4
576 604 1
577 578 1
577 605 3
578 579 1
578 606 2
579 580 3
579 607 3
580 581 5
580 608 5
581 582 4
581 609 5
582 583 3
582 610 5
583 584 1
583 611 1
584 585 5
584 612 1
585 586 4
585 613 3
586 587 1
586 614 5
587 588 5
587 615 3
588 616 3
589 590 1
589 617 1
590 591 1
590 618 4
591 592 1
591 619 2
592 593 5
592 620 2
593 594 2
593 621 4
594 595 2
594 622 4
595 596 1
595 623 1
596 597 1
596 624 2
597 598 5
597 625 3
598 599 5
598 626 1
599 600 4
599 627 3
600 601 4
600 628 3
601 602 5
601 629 3
602 603 4
602 630 5
603 604 2
603 631 2
604 605 3
604 632 1
605 606 2
605 633 4
606 607 1
606 634 4
607 608 1
607 635 3
608 609 1
608 636 1
609 610 1
609 637 4
610 611 5
610 638 4
611 612 1
611 639 3
612 613 4
612 640 1
613 614 5
613 641 3
614 615 4
614 642 5
615 616 1
615 643 3
616 644 1
617 618 2
617 645 1
618 619 4
618 646 5
619 620 5
619 647 2
620 621 1
620 648 2
621 622 4
621 649 2
622 623 2
622 650 1
623 624 3
623 651 4
624 625 3
624 652 4
625 626 1
625 653 4
626 627 5
626 654 2
627 628 5
627 655 1
628 629 1
628 656 4
629 630 4
629 657 5
630 631 5
630 658 3
631 632 5
631 659 4
632 633 2
632 660 1
633 634 4
633 661 5
634 635 5
634 662 5
635 636 4
635 663 2
636 637 1
636 664 4
637 638 2
637 665 4
638 639 2
638 666 3
639 640 2
639 667 4
640 641 3
640 668 3
641 642 1
641 669 1
642 643 1
642 670 2
643 644 3
643 671 3
644 672 1
645 646 4
645 673 4
646 647 2
646 674 2
647 648 4
647 675 5
648 649 4
648 676 2
649 650 4
649 677 5
650 651 3
650 678 2
651 652 4
651 679 3
652 653 3
652 680 3
653 654 3
653 681 5
654 655 3
654 682 4
655 656 1
655 683 1
656 657 4
656 684 4
657 658 5
657 685 2
658 659 2
658 686 4
659 660 2
659 687 4
660 661 1
660 688 4
661 662 1
661 689 3
662 663 1
662 690 5
663 664 5
663 691 5
664 665 1
664 692 2
665 666 2
665 693 4
666 667 4
666 694 4
667 668 4
667 695 1
668 669 5
668 696 1
669 670 3
669 697 4
670 671 1
670 698 3
671 672 4
671 699 4
672 700 2
673 674 3
673 701 1
674 675 2
674 702 2
675 676 4
675 703 2
676 677 4
676 704 4
677 678 3
677 705 3
678 679 5
678 706 2
679 680 1
679 707 2
680 681 5
680 708 3
681 682 2
681 709 5
682 683 3
682 710 5
683 684 2
683 711 2
684 685 2
684 712 4
685 686 5
685 713 1
686 687 1
686 714 3
687 688 1
687 715 1
688 689 5
688 716 2
689 690 3
689 717 2
690 691 2
690 718 4
691 692 3
691 719 4
692 693 2
692 720 5
693 694 3
693 721 3
694 695 3
694 722 2
695 696 3
695 723 5
696 697 4
696 724 3
697 698 1
697 725 5
698 699 2
698 726 4
699 700 1
699 727 1
700 728 3
701 702 2
701 729 2
702 703 4
702 730 1
703 704 4
703 731 3
704 705 2
704 732 5
705 706 4
705 733 4
706 707 2
706 734 4
707 708 5
707 735 3
708 709 4
708 736 3
709 710 4
709 737 2
710 711 2
710 738 2
711 712 2
711 739 3
712 713 2
712 740 1
713 714 2
713 741 5
714 715 3
714 742 4
715 716 4
715 743 2
716 717 2
716 744 2
717 718 4
717 745 4
718 719 3
718 746 2
719 720 1
719 747 4
720 721 5
720 748 5
721 722 3
721 749 3
722 723 2
722 750 4
723 724 5
723 751 3
724 725 4
724 752 2
725 726 4
725 753 2
726 727 1
726 754 4
727 728 4
727 755 3
728 756 4
729 730 3
729 757 3
730 731 3
730 758 4
731 732 1
731 759 1
732 733 1
732 760 3
733 734 2
733 761 2
734 735 3
734 762 2
735 736 3
735 763 1
736 737 2
736 764 4
737 738 4
737 765 3
738 739 4
738 766 5
739 740 3
739 767 1
740 741 1
740 768 2
741 742 1
741 769 4
742 743 1
742 770 4
743 744 3
743 771 3
744 745 2
744 772 1
745 746 3
745 773 3
746 747 1
746 774 2
747 748 5
747 775 1
748 749 4
748 776 4
749 750 1
749 777 4
750 751 3
750 778 4
751 752 1
751 779 5
752 753 1
752 780 4
753 754 4
753 781 3
754 755 2
754 782 5
755 756 5
755 783 1
756 784 1
757 758 3
758 759 5
759 760 2
760 761 3
761 762 4
762 763 3
763 764 1
764 765 3
765 766 4
766 767 1
767 768 3
768 769 2
769 770 2
770 771 1
771 772 2
772 773 2
773 774 4
774 775 5
775 776 2
776 777 2
777 778 2
778 779 3
779 780 3
780 781 2
781 782 3
782 783 3
783 784 3
